NAME : random_9
COMMENT : 40 random nodes
TYPE : TSP
DIMENSION : 40
EDGE_WEIGHT_TYPE : EUC_2D
NODE_COORD_SECTION
1 500 895
2 397 496
3 990 640
4 26 204
5 269 72
6 694 748
7 69 756
8 577 800
9 677 420
10 474 155
11 553 937
12 469 974
13 977 39
14 539 873
15 666 958
16 769 889
17 126 132
18 564 336
19 385 132
20 797 383
21 814 268
22 345 772
23 839 447
24 411 648
25 198 336
26 799 51
27 429 109
28 195 888
29 810 638
30 103 127
31 342 957
32 776 486
33 11 217
34 150 40
35 645 485
36 105 511
37 863 158
38 652 927
39 940 313
40 212 192
EOF